p cnf 756
-12 -236
-13 -239
-14 -242
-15 -245
-16 -248
-17 -251
-18 -254
-19 -257
-20 -260
-21 -263
-22 -266
-23 267
-24 268
-25 269
-26 270
-27 271
-28 272
-29 -13
-29 -14
13 14 29
-30 -15
-30 -16
15 16 30
-31 -17
-31 -18
17 18 31
-32 -19
-32 -20
19 20 32
-33 -21
-33 -22
21 22 33
-34 -23
-34 -24
23 24 34
-35 -25
-35 -26
25 26 35
-36 -27
-36 -28
27 28 36
-37 29
-37 30
-29 -30 37
-38 31
-38 32
-31 -32 38
-39 33
-39 34
-33 -34 39
-40 35
-40 36
-35 -36 40
-41 37
-41 38
-37 -38 41
-42 39
-42 40
-39 -40 42
-43 41
-43 42
-41 -42 43
-44 -12
-44 13
12 -13 44
-45 12
-45 -13
-12 13 45
-46 -44
-46 -45
44 45 46
-47 12
-47 13
-12 -13 47
-48 -12
-48 -46
12 46 48
-49 12
-49 46
-12 -46 49
-50 -48
-50 -49
48 49 50
-51 12
-51 -46
-12 46 51
-52 -47
-52 -51
47 51 52
-53 -13
-53 14
13 -14 53
-54 13
-54 -14
-13 14 54
-55 -53
-55 -54
53 54 55
-56 13
-56 14
-13 -14 56
-57 52
-57 -55
-52 55 57
-58 -52
-58 55
52 -55 58
-59 -57
-59 -58
57 58 59
-60 -52
-60 -55
52 55 60
-61 -56
-61 -60
56 60 61
-62 -14
-62 15
14 -15 62
-63 14
-63 -15
-14 15 63
-64 -62
-64 -63
62 63 64
-65 14
-65 15
-14 -15 65
-66 61
-66 -64
-61 64 66
-67 -61
-67 64
61 -64 67
-68 -66
-68 -67
66 67 68
-69 -61
-69 -64
61 64 69
-70 -65
-70 -69
65 69 70
-71 -15
-71 16
15 -16 71
-72 15
-72 -16
-15 16 72
-73 -71
-73 -72
71 72 73
-74 15
-74 16
-15 -16 74
-75 70
-75 -73
-70 73 75
-76 -70
-76 73
70 -73 76
-77 -75
-77 -76
75 76 77
-78 -70
-78 -73
70 73 78
-79 -74
-79 -78
74 78 79
-80 -16
-80 17
16 -17 80
-81 16
-81 -17
-16 17 81
-82 -80
-82 -81
80 81 82
-83 16
-83 17
-16 -17 83
-84 79
-84 -82
-79 82 84
-85 -79
-85 82
79 -82 85
-86 -84
-86 -85
84 85 86
-87 -79
-87 -82
79 82 87
-88 -83
-88 -87
83 87 88
-89 -17
-89 18
17 -18 89
-90 17
-90 -18
-17 18 90
-91 -89
-91 -90
89 90 91
-92 17
-92 18
-17 -18 92
-93 88
-93 -91
-88 91 93
-94 -88
-94 91
88 -91 94
-95 -93
-95 -94
93 94 95
-96 -88
-96 -91
88 91 96
-97 -92
-97 -96
92 96 97
-98 -18
-98 19
18 -19 98
-99 18
-99 -19
-18 19 99
-100 -98
-100 -99
98 99 100
-101 18
-101 19
-18 -19 101
-102 97
-102 -100
-97 100 102
-103 -97
-103 100
97 -100 103
-104 -102
-104 -103
102 103 104
-105 -97
-105 -100
97 100 105
-106 -101
-106 -105
101 105 106
-107 -19
-107 20
19 -20 107
-108 19
-108 -20
-19 20 108
-109 -107
-109 -108
107 108 109
-110 19
-110 20
-19 -20 110
-111 106
-111 -109
-106 109 111
-112 -106
-112 109
106 -109 112
-113 -111
-113 -112
111 112 113
-114 -106
-114 -109
106 109 114
-115 -110
-115 -114
110 114 115
-116 -20
-116 21
20 -21 116
-117 20
-117 -21
-20 21 117
-118 -116
-118 -117
116 117 118
-119 20
-119 21
-20 -21 119
-120 115
-120 -118
-115 118 120
-121 -115
-121 118
115 -118 121
-122 -120
-122 -121
120 121 122
-123 -115
-123 -118
115 118 123
-124 -119
-124 -123
119 123 124
-125 -21
-125 22
21 -22 125
-126 21
-126 -22
-21 22 126
-127 -125
-127 -126
125 126 127
-128 21
-128 22
-21 -22 128
-129 124
-129 -127
-124 127 129
-130 -124
-130 127
124 -127 130
-131 -129
-131 -130
129 130 131
-132 -124
-132 -127
124 127 132
-133 -128
-133 -132
128 132 133
-134 -22
-134 23
22 -23 134
-135 22
-135 -23
-22 23 135
-136 -134
-136 -135
134 135 136
-137 22
-137 23
-22 -23 137
-138 133
-138 -136
-133 136 138
-139 -133
-139 136
133 -136 139
-140 -138
-140 -139
138 139 140
-141 -133
-141 -136
133 136 141
-142 -137
-142 -141
137 141 142
-143 -23
-143 24
23 -24 143
-144 23
-144 -24
-23 24 144
-145 -143
-145 -144
143 144 145
-146 23
-146 24
-23 -24 146
-147 142
-147 -145
-142 145 147
-148 -142
-148 145
142 -145 148
-149 -147
-149 -148
147 148 149
-150 -142
-150 -145
142 145 150
-151 -146
-151 -150
146 150 151
-152 -24
-152 25
24 -25 152
-153 24
-153 -25
-24 25 153
-154 -152
-154 -153
152 153 154
-155 24
-155 25
-24 -25 155
-156 151
-156 -154
-151 154 156
-157 -151
-157 154
151 -154 157
-158 -156
-158 -157
156 157 158
-159 -151
-159 -154
151 154 159
-160 -155
-160 -159
155 159 160
-161 -25
-161 26
25 -26 161
-162 25
-162 -26
-25 26 162
-163 -161
-163 -162
161 162 163
-164 25
-164 26
-25 -26 164
-165 160
-165 -163
-160 163 165
-166 -160
-166 163
160 -163 166
-167 -165
-167 -166
165 166 167
-168 -160
-168 -163
160 163 168
-169 -164
-169 -168
164 168 169
-170 -26
-170 27
26 -27 170
-171 26
-171 -27
-26 27 171
-172 -170
-172 -171
170 171 172
-173 26
-173 27
-26 -27 173
-174 169
-174 -172
-169 172 174
-175 -169
-175 172
169 -172 175
-176 -174
-176 -175
174 175 176
-177 -169
-177 -172
169 172 177
-178 -173
-178 -177
173 177 178
-179 -27
-179 28
27 -28 179
-180 27
-180 -28
-27 28 180
-181 -179
-181 -180
179 180 181
-182 27
-182 28
-27 -28 182
-183 178
-183 -181
-178 181 183
-184 -178
-184 181
178 -181 184
-185 -183
-185 -184
183 184 185
-186 -178
-186 -181
178 181 186
-187 -182
-187 -186
182 186 187
-188 12
-188 -50
-12 50 188
-189 -12
-189 14
12 -14 189
-190 -188
-190 -189
188 189 190
-191 12
-191 -59
-12 59 191
-192 -12
-192 15
12 -15 192
-193 -191
-193 -192
191 192 193
-194 12
-194 -68
-12 68 194
-195 -12
-195 16
12 -16 195
-196 -194
-196 -195
194 195 196
-197 12
-197 -77
-12 77 197
-198 -12
-198 17
12 -17 198
-199 -197
-199 -198
197 198 199
-200 12
-200 -86
-12 86 200
-201 -12
-201 18
12 -18 201
-202 -200
-202 -201
200 201 202
-203 12
-203 -95
-12 95 203
-204 -12
-204 19
12 -19 204
-205 -203
-205 -204
203 204 205
-206 12
-206 -104
-12 104 206
-207 -12
-207 20
12 -20 207
-208 -206
-208 -207
206 207 208
-209 12
-209 -113
-12 113 209
-210 -12
-210 21
12 -21 210
-211 -209
-211 -210
209 210 211
-212 12
-212 -122
-12 122 212
-213 -12
-213 22
12 -22 213
-214 -212
-214 -213
212 213 214
-215 12
-215 -131
-12 131 215
-216 -12
-216 23
12 -23 216
-217 -215
-217 -216
215 216 217
-218 12
-218 -140
-12 140 218
-219 -12
-219 24
12 -24 219
-220 -218
-220 -219
218 219 220
-221 12
-221 -149
-12 149 221
-222 -12
-222 25
12 -25 222
-223 -221
-223 -222
221 222 223
-224 12
-224 -158
-12 158 224
-225 -12
-225 26
12 -26 225
-226 -224
-226 -225
224 225 226
-227 12
-227 -167
-12 167 227
-228 -12
-228 27
12 -27 228
-229 -227
-229 -228
227 228 229
-230 12
-230 -176
-12 176 230
-231 -12
-231 28
12 -28 231
-232 -230
-232 -231
230 231 232
-233 12
-233 -185
-12 185 233
-234 1
-234 43
-1 -43 234
-235 -43
-235 44
43 -44 235
-236 -234
-236 -235
234 235 236
-237 2
-237 43
-2 -43 237
-238 -43
-238 -190
43 190 238
-239 -237
-239 -238
237 238 239
-240 3
-240 43
-3 -43 240
-241 -43
-241 -193
43 193 241
-242 -240
-242 -241
240 241 242
-243 4
-243 43
-4 -43 243
-244 -43
-244 -196
43 196 244
-245 -243
-245 -244
243 244 245
-246 5
-246 43
-5 -43 246
-247 -43
-247 -199
43 199 247
-248 -246
-248 -247
246 247 248
-249 6
-249 43
-6 -43 249
-250 -43
-250 -202
43 202 250
-251 -249
-251 -250
249 250 251
-252 7
-252 43
-7 -43 252
-253 -43
-253 -205
43 205 253
-254 -252
-254 -253
252 253 254
-255 8
-255 43
-8 -43 255
-256 -43
-256 -208
43 208 256
-257 -255
-257 -256
255 256 257
-258 9
-258 43
-9 -43 258
-259 -43
-259 -211
43 211 259
-260 -258
-260 -259
258 259 260
-261 10
-261 43
-10 -43 261
-262 -43
-262 -214
43 214 262
-263 -261
-263 -262
261 262 263
-264 11
-264 43
-11 -43 264
-265 -43
-265 -217
43 217 265
-266 -264
-266 -265
264 265 266
-267 -43
-267 -220
43 220 267
-268 -43
-268 -223
43 223 268
-269 -43
-269 -226
43 226 269
-270 -43
-270 -229
43 229 270
-271 -43
-271 -232
43 232 271
-272 -43
-272 233
43 -233 272
-273 -28
-273 187
28 -187 273
-274 12
-274 -273
-12 273 274
274
